100
32
18
17
28
5
1
17
5
9
15
26
1
7
10
18
1
1
1
2
17
2
1
17
17
2
4
1
3
5
1
6
17
1
1
4
4
1
5
1
1
1
18
3
1
2
1
5
1
2
4
1
2
12
17
4
2
1
1
17
1
1
1
6
3
2
3
1
1
1
2
2
3
1
1
18
1
17
2
2
3
1
6
1
4
1
3
2
2
1
1
2
1
1
17
1
1
2
1
1
1
2